24 24
18
3 3   21 14
3 4   12 12
3 5   9 19
3 6   18 18
3 7   21 17
3 8   12 16
3 9   9 10
3 10   9 0
3 12   12 0
3 14   21 0
3 18   18 0
3 24   15 0
4 3   5 21
4 4   5 17
4 5   5 12
4 12   5 0
5 8   0 16
5 16   0 0